p edge 32 94
e 2 1
e 3 1
e 4 1
e 7 1
e 26 1
e 1 2
e 9 2
e 21 2
e 28 2
e 2 3
e 6 3
e 8 3
e 9 3
e 29 3
e 3 4
e 5 4
e 12 4
e 3 5
e 23 5
e 27 5
e 1 6
e 16 6
e 3 7
e 14 7
e 21 7
e 31 7
e 1 8
e 12 8
e 17 8
e 27 8
e 7 9
e 10 9
e 13 9
e 19 9
e 23 9
e 27 9
e 1 10
e 11 10
e 21 10
e 23 10
e 25 10
e 27 10
e 2 11
e 15 11
e 18 11
e 29 11
e 6 12
e 24 12
e 11 13
e 3 14
e 2 15
e 20 15
e 4 16
e 22 16
e 4 17
e 16 17
e 6 18
e 10 18
e 20 18
e 30 18
e 1 19
e 26 19
e 8 20
e 16 20
e 3 21
e 32 21
e 11 22
e 2 23
e 17 23
e 21 23
e 12 24
e 26 24
e 6 25
e 15 25
e 18 25
e 24 25
e 13 26
e 18 26
e 22 26
e 5 27
e 24 27
e 26 27
e 9 28
e 3 29
e 5 29
e 27 29
e 32 29
e 12 30
e 17 30
e 23 30
e 13 31
e 14 31
e 24 32
e 28 32
